c CNF file corresponding to a (partial) station packing problem.
p cnf 5363 243
1 2 3 4 5 6 7 8 9 10 11 12 13 14 0
-1 -2 0
-1 -3 0
-1 -4 0
-1 -5 0
-1 -6 0
-1 -7 0
-1 -8 0
-1 -9 0
-1 -10 0
-1 -11 0
-1 -12 0
-1 -13 0
-1 -14 0
-2 -3 0
-2 -4 0
-2 -5 0
-2 -6 0
-2 -7 0
-2 -8 0
-2 -9 0
-2 -10 0
-2 -11 0
-2 -12 0
-2 -13 0
-2 -14 0
-3 -4 0
-3 -5 0
-3 -6 0
-3 -7 0
-3 -8 0
-3 -9 0
-3 -10 0
-3 -11 0
-3 -12 0
-3 -13 0
-3 -14 0
-4 -5 0
-4 -6 0
-4 -7 0
-4 -8 0
-4 -9 0
-4 -10 0
-4 -11 0
-4 -12 0
-4 -13 0
-4 -14 0
-5 -6 0
-5 -7 0
-5 -8 0
-5 -9 0
-5 -10 0
-5 -11 0
-5 -12 0
-5 -13 0
-5 -14 0
-6 -7 0
-6 -8 0
-6 -9 0
-6 -10 0
-6 -11 0
-6 -12 0
-6 -13 0
-6 -14 0
-7 -8 0
-7 -9 0
-7 -10 0
-7 -11 0
-7 -12 0
-7 -13 0
-7 -14 0
-8 -9 0
-8 -10 0
-8 -11 0
-8 -12 0
-8 -13 0
-8 -14 0
-9 -10 0
-9 -11 0
-9 -12 0
-9 -13 0
-9 -14 0
-10 -11 0
-10 -12 0
-10 -13 0
-10 -14 0
-11 -12 0
-11 -13 0
-11 -14 0
-12 -13 0
-12 -14 0
-13 -14 0
-5353 -4 0
-5361 -12 0
-5362 -13 0
-7 -5356 0
-5355 -6 0
-10 -5359 0
-5358 -9 0
-3 -5351 0
-5350 -2 0
-5354 -5 0
-14 -5363 0
-8 -5357 0
-11 -5360 0
-1 -5349 0
5347 5348 5349 5350 5351 5352 5353 5354 5355 5356 5357 5358 5359 5360 5361 5362 5363 0
-5347 -5348 0
-5347 -5349 0
-5347 -5350 0
-5347 -5351 0
-5347 -5352 0
-5347 -5353 0
-5347 -5354 0
-5347 -5355 0
-5347 -5356 0
-5347 -5357 0
-5347 -5358 0
-5347 -5359 0
-5347 -5360 0
-5347 -5361 0
-5347 -5362 0
-5347 -5363 0
-5348 -5349 0
-5348 -5350 0
-5348 -5351 0
-5348 -5352 0
-5348 -5353 0
-5348 -5354 0
-5348 -5355 0
-5348 -5356 0
-5348 -5357 0
-5348 -5358 0
-5348 -5359 0
-5348 -5360 0
-5348 -5361 0
-5348 -5362 0
-5348 -5363 0
-5349 -5350 0
-5349 -5351 0
-5349 -5352 0
-5349 -5353 0
-5349 -5354 0
-5349 -5355 0
-5349 -5356 0
-5349 -5357 0
-5349 -5358 0
-5349 -5359 0
-5349 -5360 0
-5349 -5361 0
-5349 -5362 0
-5349 -5363 0
-5350 -5351 0
-5350 -5352 0
-5350 -5353 0
-5350 -5354 0
-5350 -5355 0
-5350 -5356 0
-5350 -5357 0
-5350 -5358 0
-5350 -5359 0
-5350 -5360 0
-5350 -5361 0
-5350 -5362 0
-5350 -5363 0
-5351 -5352 0
-5351 -5353 0
-5351 -5354 0
-5351 -5355 0
-5351 -5356 0
-5351 -5357 0
-5351 -5358 0
-5351 -5359 0
-5351 -5360 0
-5351 -5361 0
-5351 -5362 0
-5351 -5363 0
-5352 -5353 0
-5352 -5354 0
-5352 -5355 0
-5352 -5356 0
-5352 -5357 0
-5352 -5358 0
-5352 -5359 0
-5352 -5360 0
-5352 -5361 0
-5352 -5362 0
-5352 -5363 0
-5353 -5354 0
-5353 -5355 0
-5353 -5356 0
-5353 -5357 0
-5353 -5358 0
-5353 -5359 0
-5353 -5360 0
-5353 -5361 0
-5353 -5362 0
-5353 -5363 0
-5354 -5355 0
-5354 -5356 0
-5354 -5357 0
-5354 -5358 0
-5354 -5359 0
-5354 -5360 0
-5354 -5361 0
-5354 -5362 0
-5354 -5363 0
-5355 -5356 0
-5355 -5357 0
-5355 -5358 0
-5355 -5359 0
-5355 -5360 0
-5355 -5361 0
-5355 -5362 0
-5355 -5363 0
-5356 -5357 0
-5356 -5358 0
-5356 -5359 0
-5356 -5360 0
-5356 -5361 0
-5356 -5362 0
-5356 -5363 0
-5357 -5358 0
-5357 -5359 0
-5357 -5360 0
-5357 -5361 0
-5357 -5362 0
-5357 -5363 0
-5358 -5359 0
-5358 -5360 0
-5358 -5361 0
-5358 -5362 0
-5358 -5363 0
-5359 -5360 0
-5359 -5361 0
-5359 -5362 0
-5359 -5363 0
-5360 -5361 0
-5360 -5362 0
-5360 -5363 0
-5361 -5362 0
-5361 -5363 0
-5362 -5363 0
